10 45
1 2 1
1 3 26
1 4 10
1 5 9
1 6 22
1 7 21
1 8 4
1 9 3
1 10 5
2 3 11
2 4 10
2 5 14
2 6 29
2 7 18
2 8 29
2 9 25
2 10 24
3 4 29
3 5 6
3 6 21
3 7 22
3 8 20
3 9 5
3 10 0
4 5 5
4 6 20
4 7 19
4 8 19
4 9 21
4 10 21
5 6 8
5 7 8
5 8 15
5 9 10
5 10 13
6 7 20
6 8 8
6 9 10
6 10 13
7 8 4
7 9 2
7 10 5
8 9 2
8 10 26
9 10 10
